
Gurobi 11.0.1 (mac64[arm]) logging started Sat May  4 01:31:02 2024

Set parameter LogFile to value "../models/model_moo(May 04,0131).log"
Gurobi Optimizer version 11.0.1 build v11.0.1rc0 (mac64[arm] - Darwin 23.2.0 23C71)

CPU model: Apple M2
Thread count: 8 physical cores, 8 logical processors, using up to 8 threads

Optimize a model with 475 rows, 370 columns and 883 nonzeros
Model fingerprint: 0xb41154ec
Variable types: 273 continuous, 97 integer (97 binary)
Coefficient statistics:
  Matrix range     [1e+00, 2e+25]
  Objective range  [3e-02, 2e+02]
  Bounds range     [1e+00, 1e+00]
  RHS range        [1e+00, 1e+12]
Warning: Model contains large matrix coefficient range
Warning: Model contains large rhs
         Consider reformulating model or setting NumericFocus parameter
         to avoid numerical issues.

---------------------------------------------------------------------------
Multi-objectives: starting optimization with 2 objectives ... 
---------------------------------------------------------------------------

Multi-objectives: applying initial presolve ...
---------------------------------------------------------------------------

Presolve removed 354 rows and 182 columns
Presolve time: 0.00s
Presolved: 121 rows, 188 columns, 322 nonzeros
---------------------------------------------------------------------------

Multi-objectives: optimize objective 1 (objective_re_1) ...
---------------------------------------------------------------------------

Found heuristic solution: objective 0.0000000
Presolve removed 96 rows and 169 columns
Presolve time: 0.00s
Presolved: 25 rows, 19 columns, 51 nonzeros
Found heuristic solution: objective -1030.080611
Variable types: 0 continuous, 19 integer (19 binary)

Root relaxation: cutoff, 0 iterations, 0.00 seconds (0.00 work units)

Explored 1 nodes (0 simplex iterations) in 0.01 seconds (0.00 work units)
Thread count was 8 (of 8 available processors)

Solution count 1: -1030.08 
No other solutions better than -1030.08

Optimal solution found (tolerance 1.00e-04)
Best objective -1.030080610622e+03, best bound -1.030080610622e+03, gap 0.0000%
---------------------------------------------------------------------------

Multi-objectives: optimize objective 2 (objective_cost_2) ...
---------------------------------------------------------------------------


Loaded user MIP start with objective 750

Presolve removed 122 rows and 188 columns
Presolve time: 0.00s
Presolve: All rows and columns removed

Explored 0 nodes (0 simplex iterations) in 0.02 seconds (0.00 work units)
Thread count was 1 (of 8 available processors)

Solution count 1: -3065.66 
No other solutions better than -3065.66

Optimal solution found (tolerance 1.00e-04)
Best objective -3.065658916667e+03, best bound -3.065658916667e+03, gap 0.0000%

---------------------------------------------------------------------------
Multi-objectives: solved in 0.02 seconds (0.00 work units), solution count 2


Gurobi 11.0.1 (mac64[arm]) logging started Sat May  4 01:31:09 2024

Set parameter LogFile to value "../models/model_moo(May 04,0131).log"
Gurobi Optimizer version 11.0.1 build v11.0.1rc0 (mac64[arm] - Darwin 23.2.0 23C71)

CPU model: Apple M2
Thread count: 8 physical cores, 8 logical processors, using up to 8 threads

Optimize a model with 505 rows, 394 columns and 947 nonzeros
Model fingerprint: 0x82ac47b1
Variable types: 291 continuous, 103 integer (103 binary)
Coefficient statistics:
  Matrix range     [1e+00, 2e+25]
  Objective range  [1e-03, 2e+02]
  Bounds range     [1e+00, 1e+00]
  RHS range        [1e+00, 1e+12]
Warning: Model contains large matrix coefficient range
Warning: Model contains large rhs
         Consider reformulating model or setting NumericFocus parameter
         to avoid numerical issues.

---------------------------------------------------------------------------
Multi-objectives: starting optimization with 2 objectives ... 
---------------------------------------------------------------------------

Multi-objectives: applying initial presolve ...
---------------------------------------------------------------------------

Presolve removed 373 rows and 194 columns
Presolve time: 0.00s
Presolved: 132 rows, 200 columns, 350 nonzeros
---------------------------------------------------------------------------

Multi-objectives: optimize objective 1 (objective_re_1) ...
---------------------------------------------------------------------------

Found heuristic solution: objective 0.0000000
Presolve removed 92 rows and 171 columns
Presolve time: 0.00s
Presolved: 40 rows, 29 columns, 81 nonzeros
Found heuristic solution: objective -857.3974810
Variable types: 0 continuous, 29 integer (29 binary)

Root relaxation: cutoff, 0 iterations, 0.00 seconds (0.00 work units)

Explored 1 nodes (0 simplex iterations) in 0.01 seconds (0.00 work units)
Thread count was 8 (of 8 available processors)

Solution count 1: -857.397 
No other solutions better than -857.397

Optimal solution found (tolerance 1.00e-04)
Best objective -8.573974809737e+02, best bound -8.573974809737e+02, gap 0.0000%
---------------------------------------------------------------------------

Multi-objectives: optimize objective 2 (objective_cost_2) ...
---------------------------------------------------------------------------


Loaded user MIP start with objective 750

Presolve removed 133 rows and 200 columns
Presolve time: 0.00s
Presolve: All rows and columns removed

Explored 0 nodes (0 simplex iterations) in 0.01 seconds (0.00 work units)
Thread count was 1 (of 8 available processors)

Solution count 1: -3614.75 
No other solutions better than -3614.75

Optimal solution found (tolerance 1.00e-04)
Best objective -3.614749527778e+03, best bound -3.614749527778e+03, gap 0.0000%

---------------------------------------------------------------------------
Multi-objectives: solved in 0.02 seconds (0.00 work units), solution count 2


Gurobi 11.0.1 (mac64[arm]) logging started Sat May  4 01:31:15 2024

Set parameter LogFile to value "../models/model_moo(May 04,0131).log"
Gurobi Optimizer version 11.0.1 build v11.0.1rc0 (mac64[arm] - Darwin 23.2.0 23C71)

CPU model: Apple M2
Thread count: 8 physical cores, 8 logical processors, using up to 8 threads

Optimize a model with 495 rows, 386 columns and 931 nonzeros
Model fingerprint: 0xd669c55f
Variable types: 285 continuous, 101 integer (101 binary)
Coefficient statistics:
  Matrix range     [1e+00, 2e+25]
  Objective range  [3e-02, 2e+02]
  Bounds range     [1e+00, 1e+00]
  RHS range        [1e+00, 1e+12]
Warning: Model contains large matrix coefficient range
Warning: Model contains large rhs
         Consider reformulating model or setting NumericFocus parameter
         to avoid numerical issues.

---------------------------------------------------------------------------
Multi-objectives: starting optimization with 2 objectives ... 
---------------------------------------------------------------------------

Multi-objectives: applying initial presolve ...
---------------------------------------------------------------------------

Presolve removed 366 rows and 190 columns
Presolve time: 0.00s
Presolved: 129 rows, 196 columns, 343 nonzeros
---------------------------------------------------------------------------

Multi-objectives: optimize objective 1 (objective_re_1) ...
---------------------------------------------------------------------------

Found heuristic solution: objective 0.0000000
Presolve removed 92 rows and 169 columns
Presolve time: 0.00s
Presolved: 37 rows, 27 columns, 75 nonzeros
Found heuristic solution: objective -964.4438155
Variable types: 0 continuous, 27 integer (27 binary)

Root relaxation: cutoff, 0 iterations, 0.00 seconds (0.00 work units)

Explored 1 nodes (0 simplex iterations) in 0.01 seconds (0.00 work units)
Thread count was 8 (of 8 available processors)

Solution count 1: -964.444 
No other solutions better than -964.444

Optimal solution found (tolerance 1.00e-04)
Best objective -9.644438154837e+02, best bound -9.644438154837e+02, gap 0.0000%
---------------------------------------------------------------------------

Multi-objectives: optimize objective 2 (objective_cost_2) ...
---------------------------------------------------------------------------


Loaded user MIP start with objective 750

Presolve removed 130 rows and 196 columns
Presolve time: 0.00s
Presolve: All rows and columns removed

Explored 0 nodes (0 simplex iterations) in 0.01 seconds (0.00 work units)
Thread count was 1 (of 8 available processors)

Solution count 1: -2670.78 
No other solutions better than -2670.78

Optimal solution found (tolerance 1.00e-04)
Best objective -2.670781777778e+03, best bound -2.670781777778e+03, gap 0.0000%

---------------------------------------------------------------------------
Multi-objectives: solved in 0.01 seconds (0.00 work units), solution count 2


Gurobi 11.0.1 (mac64[arm]) logging started Sat May  4 01:31:22 2024

Set parameter LogFile to value "../models/model_moo(May 04,0131).log"
Gurobi Optimizer version 11.0.1 build v11.0.1rc0 (mac64[arm] - Darwin 23.2.0 23C71)

CPU model: Apple M2
Thread count: 8 physical cores, 8 logical processors, using up to 8 threads

Optimize a model with 550 rows, 430 columns and 1046 nonzeros
Model fingerprint: 0x51f1c3d3
Variable types: 318 continuous, 112 integer (112 binary)
Coefficient statistics:
  Matrix range     [1e+00, 2e+25]
  Objective range  [3e-02, 2e+02]
  Bounds range     [1e+00, 1e+00]
  RHS range        [1e+00, 1e+12]
Warning: Model contains large matrix coefficient range
Warning: Model contains large rhs
         Consider reformulating model or setting NumericFocus parameter
         to avoid numerical issues.

---------------------------------------------------------------------------
Multi-objectives: starting optimization with 2 objectives ... 
---------------------------------------------------------------------------

Multi-objectives: applying initial presolve ...
---------------------------------------------------------------------------

Presolve removed 405 rows and 212 columns
Presolve time: 0.00s
Presolved: 145 rows, 218 columns, 388 nonzeros
---------------------------------------------------------------------------

Multi-objectives: optimize objective 1 (objective_re_1) ...
---------------------------------------------------------------------------

Found heuristic solution: objective 0.0000000
Presolve removed 90 rows and 179 columns
Presolve time: 0.00s
Presolved: 55 rows, 39 columns, 111 nonzeros
Found heuristic solution: objective -1014.304253
Variable types: 0 continuous, 39 integer (39 binary)

Root relaxation: cutoff, 0 iterations, 0.00 seconds (0.00 work units)

Explored 1 nodes (0 simplex iterations) in 0.01 seconds (0.00 work units)
Thread count was 8 (of 8 available processors)

Solution count 1: -1014.3 
No other solutions better than -1014.3

Optimal solution found (tolerance 1.00e-04)
Best objective -1.014304252784e+03, best bound -1.014304252784e+03, gap 0.0000%
---------------------------------------------------------------------------

Multi-objectives: optimize objective 2 (objective_cost_2) ...
---------------------------------------------------------------------------


Loaded user MIP start with objective 750

Presolve removed 146 rows and 218 columns
Presolve time: 0.00s
Presolve: All rows and columns removed

Explored 0 nodes (0 simplex iterations) in 0.01 seconds (0.00 work units)
Thread count was 1 (of 8 available processors)

Solution count 1: -3846.34 
No other solutions better than -3846.34

Optimal solution found (tolerance 1.00e-04)
Best objective -3.846336944444e+03, best bound -3.846336944444e+03, gap 0.0000%

---------------------------------------------------------------------------
Multi-objectives: solved in 0.01 seconds (0.00 work units), solution count 2


Gurobi 11.0.1 (mac64[arm]) logging started Sat May  4 01:31:28 2024

Set parameter LogFile to value "../models/model_moo(May 04,0131).log"
Gurobi Optimizer version 11.0.1 build v11.0.1rc0 (mac64[arm] - Darwin 23.2.0 23C71)

CPU model: Apple M2
Thread count: 8 physical cores, 8 logical processors, using up to 8 threads

Optimize a model with 515 rows, 402 columns and 969 nonzeros
Model fingerprint: 0x88cfe005
Variable types: 297 continuous, 105 integer (105 binary)
Coefficient statistics:
  Matrix range     [1e+00, 2e+25]
  Objective range  [1e-03, 2e+02]
  Bounds range     [1e+00, 1e+00]
  RHS range        [1e+00, 1e+12]
Warning: Model contains large matrix coefficient range
Warning: Model contains large rhs
         Consider reformulating model or setting NumericFocus parameter
         to avoid numerical issues.

---------------------------------------------------------------------------
Multi-objectives: starting optimization with 2 objectives ... 
---------------------------------------------------------------------------

Multi-objectives: applying initial presolve ...
---------------------------------------------------------------------------

Presolve removed 379 rows and 198 columns
Presolve time: 0.00s
Presolved: 136 rows, 204 columns, 360 nonzeros
---------------------------------------------------------------------------

Multi-objectives: optimize objective 1 (objective_re_1) ...
---------------------------------------------------------------------------

Found heuristic solution: objective 0.0000000
Presolve removed 87 rows and 169 columns
Presolve time: 0.00s
Presolved: 49 rows, 35 columns, 99 nonzeros
Found heuristic solution: objective -957.4264645
Variable types: 0 continuous, 35 integer (35 binary)

Root relaxation: cutoff, 0 iterations, 0.00 seconds (0.00 work units)

Explored 1 nodes (0 simplex iterations) in 0.01 seconds (0.00 work units)
Thread count was 8 (of 8 available processors)

Solution count 1: -957.426 
No other solutions better than -957.426

Optimal solution found (tolerance 1.00e-04)
Best objective -9.574264645494e+02, best bound -9.574264645494e+02, gap 0.0000%
---------------------------------------------------------------------------

Multi-objectives: optimize objective 2 (objective_cost_2) ...
---------------------------------------------------------------------------


Loaded user MIP start with objective 750

Presolve removed 137 rows and 204 columns
Presolve time: 0.00s
Presolve: All rows and columns removed

Explored 0 nodes (0 simplex iterations) in 0.01 seconds (0.00 work units)
Thread count was 1 (of 8 available processors)

Solution count 1: -4142.84 
No other solutions better than -4142.84

Optimal solution found (tolerance 1.00e-04)
Best objective -4.142844055556e+03, best bound -4.142844055556e+03, gap 0.0000%

---------------------------------------------------------------------------
Multi-objectives: solved in 0.01 seconds (0.00 work units), solution count 2


Gurobi 11.0.1 (mac64[arm]) logging started Sat May  4 01:31:35 2024

Set parameter LogFile to value "../models/model_moo(May 04,0131).log"
Gurobi Optimizer version 11.0.1 build v11.0.1rc0 (mac64[arm] - Darwin 23.2.0 23C71)

CPU model: Apple M2
Thread count: 8 physical cores, 8 logical processors, using up to 8 threads

Optimize a model with 570 rows, 446 columns and 1092 nonzeros
Model fingerprint: 0xd4015a1b
Variable types: 330 continuous, 116 integer (116 binary)
Coefficient statistics:
  Matrix range     [1e+00, 2e+25]
  Objective range  [3e-02, 2e+02]
  Bounds range     [1e+00, 1e+00]
  RHS range        [1e+00, 1e+12]
Warning: Model contains large matrix coefficient range
Warning: Model contains large rhs
         Consider reformulating model or setting NumericFocus parameter
         to avoid numerical issues.

---------------------------------------------------------------------------
Multi-objectives: starting optimization with 2 objectives ... 
---------------------------------------------------------------------------

Multi-objectives: applying initial presolve ...
---------------------------------------------------------------------------

Presolve removed 419 rows and 220 columns
Presolve time: 0.00s
Presolved: 151 rows, 226 columns, 405 nonzeros
---------------------------------------------------------------------------

Multi-objectives: optimize objective 1 (objective_re_1) ...
---------------------------------------------------------------------------

Found heuristic solution: objective 0.0000000
Presolve removed 102 rows and 191 columns
Presolve time: 0.00s
Presolved: 49 rows, 35 columns, 99 nonzeros
Found heuristic solution: objective -1057.697751
Variable types: 0 continuous, 35 integer (35 binary)

Root relaxation: cutoff, 0 iterations, 0.00 seconds (0.00 work units)

Explored 1 nodes (0 simplex iterations) in 0.01 seconds (0.00 work units)
Thread count was 8 (of 8 available processors)

Solution count 1: -1057.7 
No other solutions better than -1057.7

Optimal solution found (tolerance 1.00e-04)
Best objective -1.057697751451e+03, best bound -1.057697751451e+03, gap 0.0000%
---------------------------------------------------------------------------

Multi-objectives: optimize objective 2 (objective_cost_2) ...
---------------------------------------------------------------------------


Loaded user MIP start with objective 750

Presolve removed 152 rows and 226 columns
Presolve time: 0.00s
Presolve: All rows and columns removed

Explored 0 nodes (0 simplex iterations) in 0.01 seconds (0.00 work units)
Thread count was 1 (of 8 available processors)

Solution count 1: -3962.52 
No other solutions better than -3962.52

Optimal solution found (tolerance 1.00e-04)
Best objective -3.962523444444e+03, best bound -3.962523444444e+03, gap 0.0000%

---------------------------------------------------------------------------
Multi-objectives: solved in 0.01 seconds (0.00 work units), solution count 2


Gurobi 11.0.1 (mac64[arm]) logging started Sat May  4 01:31:42 2024

Set parameter LogFile to value "../models/model_moo(May 04,0131).log"
Gurobi Optimizer version 11.0.1 build v11.0.1rc0 (mac64[arm] - Darwin 23.2.0 23C71)

CPU model: Apple M2
Thread count: 8 physical cores, 8 logical processors, using up to 8 threads

Optimize a model with 550 rows, 430 columns and 1050 nonzeros
Model fingerprint: 0x45d2bd24
Variable types: 318 continuous, 112 integer (112 binary)
Coefficient statistics:
  Matrix range     [1e+00, 2e+25]
  Objective range  [3e-02, 2e+02]
  Bounds range     [1e+00, 1e+00]
  RHS range        [1e+00, 1e+12]
Warning: Model contains large matrix coefficient range
Warning: Model contains large rhs
         Consider reformulating model or setting NumericFocus parameter
         to avoid numerical issues.

---------------------------------------------------------------------------
Multi-objectives: starting optimization with 2 objectives ... 
---------------------------------------------------------------------------

Multi-objectives: applying initial presolve ...
---------------------------------------------------------------------------

Presolve removed 408 rows and 212 columns
Presolve time: 0.00s
Presolved: 142 rows, 218 columns, 384 nonzeros
---------------------------------------------------------------------------

Multi-objectives: optimize objective 1 (objective_re_1) ...
---------------------------------------------------------------------------

Found heuristic solution: objective 0.0000000
Presolve removed 114 rows and 197 columns
Presolve time: 0.00s
Presolved: 28 rows, 21 columns, 57 nonzeros
Found heuristic solution: objective -1040.434376
Variable types: 0 continuous, 21 integer (21 binary)

Root relaxation: cutoff, 0 iterations, 0.00 seconds (0.00 work units)

Explored 1 nodes (0 simplex iterations) in 0.01 seconds (0.00 work units)
Thread count was 8 (of 8 available processors)

Solution count 1: -1040.43 
No other solutions better than -1040.43

Optimal solution found (tolerance 1.00e-04)
Best objective -1.040434376099e+03, best bound -1.040434376099e+03, gap 0.0000%
---------------------------------------------------------------------------

Multi-objectives: optimize objective 2 (objective_cost_2) ...
---------------------------------------------------------------------------


Loaded user MIP start with objective 750

Presolve removed 143 rows and 218 columns
Presolve time: 0.00s
Presolve: All rows and columns removed

Explored 0 nodes (0 simplex iterations) in 0.01 seconds (0.00 work units)
Thread count was 1 (of 8 available processors)

Solution count 1: -4026.42 
No other solutions better than -4026.42

Optimal solution found (tolerance 1.00e-04)
Best objective -4.026422000000e+03, best bound -4.026422000000e+03, gap 0.0000%

---------------------------------------------------------------------------
Multi-objectives: solved in 0.01 seconds (0.00 work units), solution count 2

